100
128
13
9
26
3
17
1
6
13
2
7
48
23
14
41
46
29
50
36
11
18
22
61
42
6
30
1
41
3
51
53
6
62
29
1
5
9
1
53
46
50
19
1
6
6
35
3
1
6
53
54
61
53
60
2
61
2
3
15
19
42
3
32
45
51
59
63
48
38
42
58
32
9
54
34
43
37
43
35
36
6
4
10
3
31
6
59
55
64
25
32
1
63
46
4
63
3
19
64
2
1